Maximize
  27 x0_0_ + 27 x0_1_ + 27 x0_2_ + 27 x0_3_ + 27 x0_4_ + 6 x0_5_ + 6 x0_6_
   + 27 x0_7_ + 27 x0_8_ + 27 x0_9_ + 360 x1_5_ + 360 x1_6_ + 68 x2_5_
   + 68 x2_6_ + 45 x3_0_ + 45 x3_1_ + 45 x3_2_ + 45 x3_3_ + 45 x3_4_
   + 10 x3_5_ + 10 x3_6_ + 45 x3_7_ + 45 x3_8_ + 45 x3_9_ + 27 x4_0_
   + 27 x4_1_ + 27 x4_2_ + 27 x4_3_ + 27 x4_4_ + 6 x4_5_ + 6 x4_6_
   + 27 x4_7_ + 27 x4_8_ + 27 x4_9_ + 216 x5_5_ + 216 x5_6_ + 45 x6_0_
   + 45 x6_1_ + 45 x6_2_ + 45 x6_3_ + 45 x6_4_ + 10 x6_5_ + 10 x6_6_
   + 45 x6_7_ + 45 x6_8_ + 45 x6_9_ + 45 x7_0_ + 45 x7_1_ + 45 x7_2_
   + 45 x7_3_ + 45 x7_4_ + 10 x7_5_ + 10 x7_6_ + 45 x7_7_ + 45 x7_8_
   + 45 x7_9_ + 18 x8_0_ + 18 x8_1_ + 18 x8_2_ + 18 x8_3_ + 18 x8_4_
   + 4 x8_5_ + 4 x8_6_ + 18 x8_7_ + 18 x8_8_ + 18 x8_9_ + 360 x9_5_
   + 360 x9_6_ + 18 x10_0_ + 18 x10_1_ + 18 x10_2_ + 18 x10_3_ + 18 x10_4_
   + 4 x10_5_ + 4 x10_6_ + 18 x10_7_ + 18 x10_8_ + 18 x10_9_ + 216 x11_5_
   + 216 x11_6_ + 54 x12_0_ + 54 x12_1_ + 54 x12_2_ + 54 x12_3_ + 54 x12_4_
   + 12 x12_5_ + 12 x12_6_ + 54 x12_7_ + 54 x12_8_ + 54 x12_9_ + 45 x13_0_
   + 45 x13_1_ + 45 x13_2_ + 45 x13_3_ + 45 x13_4_ + 10 x13_5_ + 10 x13_6_
   + 45 x13_7_ + 45 x13_8_ + 45 x13_9_ + 288 x14_5_ + 288 x14_6_
Subject To
 R0: x0_0_ + x0_1_ + x0_2_ + x0_3_ + x0_4_ + x0_5_ + x0_6_ + x0_7_ + x0_8_
   + x0_9_ + x0_n_ = 1
 R1: x1_5_ + x1_6_ + x1_n_ = 1
 R2: x2_5_ + x2_6_ + x2_n_ = 1
 R3: x3_0_ + x3_1_ + x3_2_ + x3_3_ + x3_4_ + x3_5_ + x3_6_ + x3_7_ + x3_8_
   + x3_9_ + x3_n_ = 1
 R4: x4_0_ + x4_1_ + x4_2_ + x4_3_ + x4_4_ + x4_5_ + x4_6_ + x4_7_ + x4_8_
   + x4_9_ + x4_n_ = 1
 R5: x5_5_ + x5_6_ + x5_n_ = 1
 R6: x6_0_ + x6_1_ + x6_2_ + x6_3_ + x6_4_ + x6_5_ + x6_6_ + x6_7_ + x6_8_
   + x6_9_ + x6_n_ = 1
 R7: x7_0_ + x7_1_ + x7_2_ + x7_3_ + x7_4_ + x7_5_ + x7_6_ + x7_7_ + x7_8_
   + x7_9_ + x7_n_ = 1
 R8: x8_0_ + x8_1_ + x8_2_ + x8_3_ + x8_4_ + x8_5_ + x8_6_ + x8_7_ + x8_8_
   + x8_9_ + x8_n_ = 1
 R9: x9_5_ + x9_6_ + x9_n_ = 1
 R10: x10_0_ + x10_1_ + x10_2_ + x10_3_ + x10_4_ + x10_5_ + x10_6_ + x10_7_
   + x10_8_ + x10_9_ + x10_n_ = 1
 R11: x11_5_ + x11_6_ + x11_n_ = 1
 R12: x12_0_ + x12_1_ + x12_2_ + x12_3_ + x12_4_ + x12_5_ + x12_6_ + x12_7_
   + x12_8_ + x12_9_ + x12_n_ = 1
 R13: x13_0_ + x13_1_ + x13_2_ + x13_3_ + x13_4_ + x13_5_ + x13_6_ + x13_7_
   + x13_8_ + x13_9_ + x13_n_ = 1
 R14: x14_5_ + x14_6_ + x14_n_ = 1
 R15: x0_0_ + x3_0_ <= 1
 R16: x0_1_ + x3_1_ <= 1
 R17: x0_2_ + x3_2_ <= 1
 R18: x0_3_ + x3_3_ <= 1
 R19: x0_4_ + x3_4_ <= 1
 R20: x0_5_ + x3_5_ <= 1
 R21: x0_6_ + x3_6_ <= 1
 R22: x0_7_ + x3_7_ <= 1
 R23: x0_8_ + x3_8_ <= 1
 R24: x0_9_ + x3_9_ <= 1
 R25: x0_0_ + x4_0_ <= 1
 R26: x0_1_ + x4_1_ <= 1
 R27: x0_2_ + x4_2_ <= 1
 R28: x0_3_ + x4_3_ <= 1
 R29: x0_4_ + x4_4_ <= 1
 R30: x0_5_ + x4_5_ <= 1
 R31: x0_6_ + x4_6_ <= 1
 R32: x0_7_ + x4_7_ <= 1
 R33: x0_8_ + x4_8_ <= 1
 R34: x0_9_ + x4_9_ <= 1
 R35: x0_0_ + x6_0_ <= 1
 R36: x0_1_ + x6_1_ <= 1
 R37: x0_2_ + x6_2_ <= 1
 R38: x0_3_ + x6_3_ <= 1
 R39: x0_4_ + x6_4_ <= 1
 R40: x0_5_ + x6_5_ <= 1
 R41: x0_6_ + x6_6_ <= 1
 R42: x0_7_ + x6_7_ <= 1
 R43: x0_8_ + x6_8_ <= 1
 R44: x0_9_ + x6_9_ <= 1
 R45: x0_0_ + x7_0_ <= 1
 R46: x0_1_ + x7_1_ <= 1
 R47: x0_2_ + x7_2_ <= 1
 R48: x0_3_ + x7_3_ <= 1
 R49: x0_4_ + x7_4_ <= 1
 R50: x0_5_ + x7_5_ <= 1
 R51: x0_6_ + x7_6_ <= 1
 R52: x0_7_ + x7_7_ <= 1
 R53: x0_8_ + x7_8_ <= 1
 R54: x0_9_ + x7_9_ <= 1
 R55: x0_0_ + x10_0_ <= 1
 R56: x0_1_ + x10_1_ <= 1
 R57: x0_2_ + x10_2_ <= 1
 R58: x0_3_ + x10_3_ <= 1
 R59: x0_4_ + x10_4_ <= 1
 R60: x0_5_ + x10_5_ <= 1
 R61: x0_6_ + x10_6_ <= 1
 R62: x0_7_ + x10_7_ <= 1
 R63: x0_8_ + x10_8_ <= 1
 R64: x0_9_ + x10_9_ <= 1
 R65: x0_0_ + x12_0_ <= 1
 R66: x0_1_ + x12_1_ <= 1
 R67: x0_2_ + x12_2_ <= 1
 R68: x0_3_ + x12_3_ <= 1
 R69: x0_4_ + x12_4_ <= 1
 R70: x0_5_ + x12_5_ <= 1
 R71: x0_6_ + x12_6_ <= 1
 R72: x0_7_ + x12_7_ <= 1
 R73: x0_8_ + x12_8_ <= 1
 R74: x0_9_ + x12_9_ <= 1
 R75: x0_0_ + x13_0_ <= 1
 R76: x0_1_ + x13_1_ <= 1
 R77: x0_2_ + x13_2_ <= 1
 R78: x0_3_ + x13_3_ <= 1
 R79: x0_4_ + x13_4_ <= 1
 R80: x0_5_ + x13_5_ <= 1
 R81: x0_6_ + x13_6_ <= 1
 R82: x0_7_ + x13_7_ <= 1
 R83: x0_8_ + x13_8_ <= 1
 R84: x0_9_ + x13_9_ <= 1
 R85: x1_5_ + x3_5_ <= 1
 R86: x1_6_ + x3_6_ <= 1
 R87: x1_5_ + x6_5_ <= 1
 R88: x1_6_ + x6_6_ <= 1
 R89: x1_5_ + x7_5_ <= 1
 R90: x1_6_ + x7_6_ <= 1
 R91: x1_5_ + x9_5_ <= 1
 R92: x1_6_ + x9_6_ <= 1
 R93: x1_5_ + x11_5_ <= 1
 R94: x1_6_ + x11_6_ <= 1
 R95: x1_5_ + x12_5_ <= 1
 R96: x1_6_ + x12_6_ <= 1
 R97: x1_5_ + x13_5_ <= 1
 R98: x1_6_ + x13_6_ <= 1
 R99: x1_5_ + x14_5_ <= 1
 R100: x1_6_ + x14_6_ <= 1
 R101: x1_5_ + x2_5_ <= 1
 R102: x1_6_ + x2_6_ <= 1
 R103: x2_5_ + x3_5_ <= 1
 R104: x2_6_ + x3_6_ <= 1
 R105: x2_5_ + x6_5_ <= 1
 R106: x2_6_ + x6_6_ <= 1
 R107: x2_5_ + x7_5_ <= 1
 R108: x2_6_ + x7_6_ <= 1
 R109: x2_5_ + x9_5_ <= 1
 R110: x2_6_ + x9_6_ <= 1
 R111: x2_5_ + x11_5_ <= 1
 R112: x2_6_ + x11_6_ <= 1
 R113: x2_5_ + x12_5_ <= 1
 R114: x2_6_ + x12_6_ <= 1
 R115: x0_0_ + x3_0_ <= 1
 R116: x0_1_ + x3_1_ <= 1
 R117: x0_2_ + x3_2_ <= 1
 R118: x0_3_ + x3_3_ <= 1
 R119: x0_4_ + x3_4_ <= 1
 R120: x0_5_ + x3_5_ <= 1
 R121: x0_6_ + x3_6_ <= 1
 R122: x0_7_ + x3_7_ <= 1
 R123: x0_8_ + x3_8_ <= 1
 R124: x0_9_ + x3_9_ <= 1
 R125: x3_0_ + x4_0_ <= 1
 R126: x3_1_ + x4_1_ <= 1
 R127: x3_2_ + x4_2_ <= 1
 R128: x3_3_ + x4_3_ <= 1
 R129: x3_4_ + x4_4_ <= 1
 R130: x3_5_ + x4_5_ <= 1
 R131: x3_6_ + x4_6_ <= 1
 R132: x3_7_ + x4_7_ <= 1
 R133: x3_8_ + x4_8_ <= 1
 R134: x3_9_ + x4_9_ <= 1
 R135: x3_0_ + x6_0_ <= 1
 R136: x3_1_ + x6_1_ <= 1
 R137: x3_2_ + x6_2_ <= 1
 R138: x3_3_ + x6_3_ <= 1
 R139: x3_4_ + x6_4_ <= 1
 R140: x3_5_ + x6_5_ <= 1
 R141: x3_6_ + x6_6_ <= 1
 R142: x3_7_ + x6_7_ <= 1
 R143: x3_8_ + x6_8_ <= 1
 R144: x3_9_ + x6_9_ <= 1
 R145: x3_0_ + x7_0_ <= 1
 R146: x3_1_ + x7_1_ <= 1
 R147: x3_2_ + x7_2_ <= 1
 R148: x3_3_ + x7_3_ <= 1
 R149: x3_4_ + x7_4_ <= 1
 R150: x3_5_ + x7_5_ <= 1
 R151: x3_6_ + x7_6_ <= 1
 R152: x3_7_ + x7_7_ <= 1
 R153: x3_8_ + x7_8_ <= 1
 R154: x3_9_ + x7_9_ <= 1
 R155: x3_0_ + x10_0_ <= 1
 R156: x3_1_ + x10_1_ <= 1
 R157: x3_2_ + x10_2_ <= 1
 R158: x3_3_ + x10_3_ <= 1
 R159: x3_4_ + x10_4_ <= 1
 R160: x3_5_ + x10_5_ <= 1
 R161: x3_6_ + x10_6_ <= 1
 R162: x3_7_ + x10_7_ <= 1
 R163: x3_8_ + x10_8_ <= 1
 R164: x3_9_ + x10_9_ <= 1
 R165: x3_0_ + x12_0_ <= 1
 R166: x3_1_ + x12_1_ <= 1
 R167: x3_2_ + x12_2_ <= 1
 R168: x3_3_ + x12_3_ <= 1
 R169: x3_4_ + x12_4_ <= 1
 R170: x3_5_ + x12_5_ <= 1
 R171: x3_6_ + x12_6_ <= 1
 R172: x3_7_ + x12_7_ <= 1
 R173: x3_8_ + x12_8_ <= 1
 R174: x3_9_ + x12_9_ <= 1
 R175: x3_0_ + x13_0_ <= 1
 R176: x3_1_ + x13_1_ <= 1
 R177: x3_2_ + x13_2_ <= 1
 R178: x3_3_ + x13_3_ <= 1
 R179: x3_4_ + x13_4_ <= 1
 R180: x3_5_ + x13_5_ <= 1
 R181: x3_6_ + x13_6_ <= 1
 R182: x3_7_ + x13_7_ <= 1
 R183: x3_8_ + x13_8_ <= 1
 R184: x3_9_ + x13_9_ <= 1
 R185: x0_0_ + x4_0_ <= 1
 R186: x0_1_ + x4_1_ <= 1
 R187: x0_2_ + x4_2_ <= 1
 R188: x0_3_ + x4_3_ <= 1
 R189: x0_4_ + x4_4_ <= 1
 R190: x0_5_ + x4_5_ <= 1
 R191: x0_6_ + x4_6_ <= 1
 R192: x0_7_ + x4_7_ <= 1
 R193: x0_8_ + x4_8_ <= 1
 R194: x0_9_ + x4_9_ <= 1
 R195: x3_0_ + x4_0_ <= 1
 R196: x3_1_ + x4_1_ <= 1
 R197: x3_2_ + x4_2_ <= 1
 R198: x3_3_ + x4_3_ <= 1
 R199: x3_4_ + x4_4_ <= 1
 R200: x3_5_ + x4_5_ <= 1
 R201: x3_6_ + x4_6_ <= 1
 R202: x3_7_ + x4_7_ <= 1
 R203: x3_8_ + x4_8_ <= 1
 R204: x3_9_ + x4_9_ <= 1
 R205: x4_0_ + x6_0_ <= 1
 R206: x4_1_ + x6_1_ <= 1
 R207: x4_2_ + x6_2_ <= 1
 R208: x4_3_ + x6_3_ <= 1
 R209: x4_4_ + x6_4_ <= 1
 R210: x4_5_ + x6_5_ <= 1
 R211: x4_6_ + x6_6_ <= 1
 R212: x4_7_ + x6_7_ <= 1
 R213: x4_8_ + x6_8_ <= 1
 R214: x4_9_ + x6_9_ <= 1
 R215: x4_0_ + x7_0_ <= 1
 R216: x4_1_ + x7_1_ <= 1
 R217: x4_2_ + x7_2_ <= 1
 R218: x4_3_ + x7_3_ <= 1
 R219: x4_4_ + x7_4_ <= 1
 R220: x4_5_ + x7_5_ <= 1
 R221: x4_6_ + x7_6_ <= 1
 R222: x4_7_ + x7_7_ <= 1
 R223: x4_8_ + x7_8_ <= 1
 R224: x4_9_ + x7_9_ <= 1
 R225: x4_0_ + x10_0_ <= 1
 R226: x4_1_ + x10_1_ <= 1
 R227: x4_2_ + x10_2_ <= 1
 R228: x4_3_ + x10_3_ <= 1
 R229: x4_4_ + x10_4_ <= 1
 R230: x4_5_ + x10_5_ <= 1
 R231: x4_6_ + x10_6_ <= 1
 R232: x4_7_ + x10_7_ <= 1
 R233: x4_8_ + x10_8_ <= 1
 R234: x4_9_ + x10_9_ <= 1
 R235: x4_0_ + x12_0_ <= 1
 R236: x4_1_ + x12_1_ <= 1
 R237: x4_2_ + x12_2_ <= 1
 R238: x4_3_ + x12_3_ <= 1
 R239: x4_4_ + x12_4_ <= 1
 R240: x4_5_ + x12_5_ <= 1
 R241: x4_6_ + x12_6_ <= 1
 R242: x4_7_ + x12_7_ <= 1
 R243: x4_8_ + x12_8_ <= 1
 R244: x4_9_ + x12_9_ <= 1
 R245: x4_0_ + x13_0_ <= 1
 R246: x4_1_ + x13_1_ <= 1
 R247: x4_2_ + x13_2_ <= 1
 R248: x4_3_ + x13_3_ <= 1
 R249: x4_4_ + x13_4_ <= 1
 R250: x4_5_ + x13_5_ <= 1
 R251: x4_6_ + x13_6_ <= 1
 R252: x4_7_ + x13_7_ <= 1
 R253: x4_8_ + x13_8_ <= 1
 R254: x4_9_ + x13_9_ <= 1
 R255: x0_5_ + x5_5_ <= 1
 R256: x0_6_ + x5_6_ <= 1
 R257: x3_5_ + x5_5_ <= 1
 R258: x3_6_ + x5_6_ <= 1
 R259: x4_5_ + x5_5_ <= 1
 R260: x4_6_ + x5_6_ <= 1
 R261: x5_5_ + x6_5_ <= 1
 R262: x5_6_ + x6_6_ <= 1
 R263: x5_5_ + x7_5_ <= 1
 R264: x5_6_ + x7_6_ <= 1
 R265: x5_5_ + x9_5_ <= 1
 R266: x5_6_ + x9_6_ <= 1
 R267: x5_5_ + x10_5_ <= 1
 R268: x5_6_ + x10_6_ <= 1
 R269: x5_5_ + x12_5_ <= 1
 R270: x5_6_ + x12_6_ <= 1
 R271: x5_5_ + x13_5_ <= 1
 R272: x5_6_ + x13_6_ <= 1
 R273: x5_5_ + x14_5_ <= 1
 R274: x5_6_ + x14_6_ <= 1
 R275: x0_0_ + x6_0_ <= 1
 R276: x0_1_ + x6_1_ <= 1
 R277: x0_2_ + x6_2_ <= 1
 R278: x0_3_ + x6_3_ <= 1
 R279: x0_4_ + x6_4_ <= 1
 R280: x0_5_ + x6_5_ <= 1
 R281: x0_6_ + x6_6_ <= 1
 R282: x0_7_ + x6_7_ <= 1
 R283: x0_8_ + x6_8_ <= 1
 R284: x0_9_ + x6_9_ <= 1
 R285: x3_0_ + x6_0_ <= 1
 R286: x3_1_ + x6_1_ <= 1
 R287: x3_2_ + x6_2_ <= 1
 R288: x3_3_ + x6_3_ <= 1
 R289: x3_4_ + x6_4_ <= 1
 R290: x3_5_ + x6_5_ <= 1
 R291: x3_6_ + x6_6_ <= 1
 R292: x3_7_ + x6_7_ <= 1
 R293: x3_8_ + x6_8_ <= 1
 R294: x3_9_ + x6_9_ <= 1
 R295: x4_0_ + x6_0_ <= 1
 R296: x4_1_ + x6_1_ <= 1
 R297: x4_2_ + x6_2_ <= 1
 R298: x4_3_ + x6_3_ <= 1
 R299: x4_4_ + x6_4_ <= 1
 R300: x4_5_ + x6_5_ <= 1
 R301: x4_6_ + x6_6_ <= 1
 R302: x4_7_ + x6_7_ <= 1
 R303: x4_8_ + x6_8_ <= 1
 R304: x4_9_ + x6_9_ <= 1
 R305: x6_0_ + x7_0_ <= 1
 R306: x6_1_ + x7_1_ <= 1
 R307: x6_2_ + x7_2_ <= 1
 R308: x6_3_ + x7_3_ <= 1
 R309: x6_4_ + x7_4_ <= 1
 R310: x6_5_ + x7_5_ <= 1
 R311: x6_6_ + x7_6_ <= 1
 R312: x6_7_ + x7_7_ <= 1
 R313: x6_8_ + x7_8_ <= 1
 R314: x6_9_ + x7_9_ <= 1
 R315: x6_0_ + x10_0_ <= 1
 R316: x6_1_ + x10_1_ <= 1
 R317: x6_2_ + x10_2_ <= 1
 R318: x6_3_ + x10_3_ <= 1
 R319: x6_4_ + x10_4_ <= 1
 R320: x6_5_ + x10_5_ <= 1
 R321: x6_6_ + x10_6_ <= 1
 R322: x6_7_ + x10_7_ <= 1
 R323: x6_8_ + x10_8_ <= 1
 R324: x6_9_ + x10_9_ <= 1
 R325: x6_0_ + x12_0_ <= 1
 R326: x6_1_ + x12_1_ <= 1
 R327: x6_2_ + x12_2_ <= 1
 R328: x6_3_ + x12_3_ <= 1
 R329: x6_4_ + x12_4_ <= 1
 R330: x6_5_ + x12_5_ <= 1
 R331: x6_6_ + x12_6_ <= 1
 R332: x6_7_ + x12_7_ <= 1
 R333: x6_8_ + x12_8_ <= 1
 R334: x6_9_ + x12_9_ <= 1
 R335: x6_0_ + x13_0_ <= 1
 R336: x6_1_ + x13_1_ <= 1
 R337: x6_2_ + x13_2_ <= 1
 R338: x6_3_ + x13_3_ <= 1
 R339: x6_4_ + x13_4_ <= 1
 R340: x6_5_ + x13_5_ <= 1
 R341: x6_6_ + x13_6_ <= 1
 R342: x6_7_ + x13_7_ <= 1
 R343: x6_8_ + x13_8_ <= 1
 R344: x6_9_ + x13_9_ <= 1
 R345: x0_0_ + x7_0_ <= 1
 R346: x0_1_ + x7_1_ <= 1
 R347: x0_2_ + x7_2_ <= 1
 R348: x0_3_ + x7_3_ <= 1
 R349: x0_4_ + x7_4_ <= 1
 R350: x0_5_ + x7_5_ <= 1
 R351: x0_6_ + x7_6_ <= 1
 R352: x0_7_ + x7_7_ <= 1
 R353: x0_8_ + x7_8_ <= 1
 R354: x0_9_ + x7_9_ <= 1
 R355: x3_0_ + x7_0_ <= 1
 R356: x3_1_ + x7_1_ <= 1
 R357: x3_2_ + x7_2_ <= 1
 R358: x3_3_ + x7_3_ <= 1
 R359: x3_4_ + x7_4_ <= 1
 R360: x3_5_ + x7_5_ <= 1
 R361: x3_6_ + x7_6_ <= 1
 R362: x3_7_ + x7_7_ <= 1
 R363: x3_8_ + x7_8_ <= 1
 R364: x3_9_ + x7_9_ <= 1
 R365: x4_0_ + x7_0_ <= 1
 R366: x4_1_ + x7_1_ <= 1
 R367: x4_2_ + x7_2_ <= 1
 R368: x4_3_ + x7_3_ <= 1
 R369: x4_4_ + x7_4_ <= 1
 R370: x4_5_ + x7_5_ <= 1
 R371: x4_6_ + x7_6_ <= 1
 R372: x4_7_ + x7_7_ <= 1
 R373: x4_8_ + x7_8_ <= 1
 R374: x4_9_ + x7_9_ <= 1
 R375: x6_0_ + x7_0_ <= 1
 R376: x6_1_ + x7_1_ <= 1
 R377: x6_2_ + x7_2_ <= 1
 R378: x6_3_ + x7_3_ <= 1
 R379: x6_4_ + x7_4_ <= 1
 R380: x6_5_ + x7_5_ <= 1
 R381: x6_6_ + x7_6_ <= 1
 R382: x6_7_ + x7_7_ <= 1
 R383: x6_8_ + x7_8_ <= 1
 R384: x6_9_ + x7_9_ <= 1
 R385: x7_0_ + x10_0_ <= 1
 R386: x7_1_ + x10_1_ <= 1
 R387: x7_2_ + x10_2_ <= 1
 R388: x7_3_ + x10_3_ <= 1
 R389: x7_4_ + x10_4_ <= 1
 R390: x7_5_ + x10_5_ <= 1
 R391: x7_6_ + x10_6_ <= 1
 R392: x7_7_ + x10_7_ <= 1
 R393: x7_8_ + x10_8_ <= 1
 R394: x7_9_ + x10_9_ <= 1
 R395: x7_0_ + x12_0_ <= 1
 R396: x7_1_ + x12_1_ <= 1
 R397: x7_2_ + x12_2_ <= 1
 R398: x7_3_ + x12_3_ <= 1
 R399: x7_4_ + x12_4_ <= 1
 R400: x7_5_ + x12_5_ <= 1
 R401: x7_6_ + x12_6_ <= 1
 R402: x7_7_ + x12_7_ <= 1
 R403: x7_8_ + x12_8_ <= 1
 R404: x7_9_ + x12_9_ <= 1
 R405: x7_0_ + x13_0_ <= 1
 R406: x7_1_ + x13_1_ <= 1
 R407: x7_2_ + x13_2_ <= 1
 R408: x7_3_ + x13_3_ <= 1
 R409: x7_4_ + x13_4_ <= 1
 R410: x7_5_ + x13_5_ <= 1
 R411: x7_6_ + x13_6_ <= 1
 R412: x7_7_ + x13_7_ <= 1
 R413: x7_8_ + x13_8_ <= 1
 R414: x7_9_ + x13_9_ <= 1
 R415: x0_5_ + x9_5_ <= 1
 R416: x0_6_ + x9_6_ <= 1
 R417: x1_5_ + x9_5_ <= 1
 R418: x1_6_ + x9_6_ <= 1
 R419: x3_5_ + x9_5_ <= 1
 R420: x3_6_ + x9_6_ <= 1
 R421: x4_5_ + x9_5_ <= 1
 R422: x4_6_ + x9_6_ <= 1
 R423: x5_5_ + x9_5_ <= 1
 R424: x5_6_ + x9_6_ <= 1
 R425: x6_5_ + x9_5_ <= 1
 R426: x6_6_ + x9_6_ <= 1
 R427: x7_5_ + x9_5_ <= 1
 R428: x7_6_ + x9_6_ <= 1
 R429: x9_5_ + x10_5_ <= 1
 R430: x9_6_ + x10_6_ <= 1
 R431: x9_5_ + x11_5_ <= 1
 R432: x9_6_ + x11_6_ <= 1
 R433: x9_5_ + x12_5_ <= 1
 R434: x9_6_ + x12_6_ <= 1
 R435: x9_5_ + x13_5_ <= 1
 R436: x9_6_ + x13_6_ <= 1
 R437: x9_5_ + x14_5_ <= 1
 R438: x9_6_ + x14_6_ <= 1
 R439: x0_0_ + x10_0_ <= 1
 R440: x0_1_ + x10_1_ <= 1
 R441: x0_2_ + x10_2_ <= 1
 R442: x0_3_ + x10_3_ <= 1
 R443: x0_4_ + x10_4_ <= 1
 R444: x0_5_ + x10_5_ <= 1
 R445: x0_6_ + x10_6_ <= 1
 R446: x0_7_ + x10_7_ <= 1
 R447: x0_8_ + x10_8_ <= 1
 R448: x0_9_ + x10_9_ <= 1
 R449: x3_0_ + x10_0_ <= 1
 R450: x3_1_ + x10_1_ <= 1
 R451: x3_2_ + x10_2_ <= 1
 R452: x3_3_ + x10_3_ <= 1
 R453: x3_4_ + x10_4_ <= 1
 R454: x3_5_ + x10_5_ <= 1
 R455: x3_6_ + x10_6_ <= 1
 R456: x3_7_ + x10_7_ <= 1
 R457: x3_8_ + x10_8_ <= 1
 R458: x3_9_ + x10_9_ <= 1
 R459: x4_0_ + x10_0_ <= 1
 R460: x4_1_ + x10_1_ <= 1
 R461: x4_2_ + x10_2_ <= 1
 R462: x4_3_ + x10_3_ <= 1
 R463: x4_4_ + x10_4_ <= 1
 R464: x4_5_ + x10_5_ <= 1
 R465: x4_6_ + x10_6_ <= 1
 R466: x4_7_ + x10_7_ <= 1
 R467: x4_8_ + x10_8_ <= 1
 R468: x4_9_ + x10_9_ <= 1
 R469: x6_0_ + x10_0_ <= 1
 R470: x6_1_ + x10_1_ <= 1
 R471: x6_2_ + x10_2_ <= 1
 R472: x6_3_ + x10_3_ <= 1
 R473: x6_4_ + x10_4_ <= 1
 R474: x6_5_ + x10_5_ <= 1
 R475: x6_6_ + x10_6_ <= 1
 R476: x6_7_ + x10_7_ <= 1
 R477: x6_8_ + x10_8_ <= 1
 R478: x6_9_ + x10_9_ <= 1
 R479: x7_0_ + x10_0_ <= 1
 R480: x7_1_ + x10_1_ <= 1
 R481: x7_2_ + x10_2_ <= 1
 R482: x7_3_ + x10_3_ <= 1
 R483: x7_4_ + x10_4_ <= 1
 R484: x7_5_ + x10_5_ <= 1
 R485: x7_6_ + x10_6_ <= 1
 R486: x7_7_ + x10_7_ <= 1
 R487: x7_8_ + x10_8_ <= 1
 R488: x7_9_ + x10_9_ <= 1
 R489: x10_0_ + x12_0_ <= 1
 R490: x10_1_ + x12_1_ <= 1
 R491: x10_2_ + x12_2_ <= 1
 R492: x10_3_ + x12_3_ <= 1
 R493: x10_4_ + x12_4_ <= 1
 R494: x10_5_ + x12_5_ <= 1
 R495: x10_6_ + x12_6_ <= 1
 R496: x10_7_ + x12_7_ <= 1
 R497: x10_8_ + x12_8_ <= 1
 R498: x10_9_ + x12_9_ <= 1
 R499: x10_0_ + x13_0_ <= 1
 R500: x10_1_ + x13_1_ <= 1
 R501: x10_2_ + x13_2_ <= 1
 R502: x10_3_ + x13_3_ <= 1
 R503: x10_4_ + x13_4_ <= 1
 R504: x10_5_ + x13_5_ <= 1
 R505: x10_6_ + x13_6_ <= 1
 R506: x10_7_ + x13_7_ <= 1
 R507: x10_8_ + x13_8_ <= 1
 R508: x10_9_ + x13_9_ <= 1
 R509: x1_5_ + x11_5_ <= 1
 R510: x1_6_ + x11_6_ <= 1
 R511: x3_5_ + x11_5_ <= 1
 R512: x3_6_ + x11_6_ <= 1
 R513: x6_5_ + x11_5_ <= 1
 R514: x6_6_ + x11_6_ <= 1
 R515: x7_5_ + x11_5_ <= 1
 R516: x7_6_ + x11_6_ <= 1
 R517: x9_5_ + x11_5_ <= 1
 R518: x9_6_ + x11_6_ <= 1
 R519: x11_5_ + x12_5_ <= 1
 R520: x11_6_ + x12_6_ <= 1
 R521: x0_0_ + x12_0_ <= 1
 R522: x0_1_ + x12_1_ <= 1
 R523: x0_2_ + x12_2_ <= 1
 R524: x0_3_ + x12_3_ <= 1
 R525: x0_4_ + x12_4_ <= 1
 R526: x0_5_ + x12_5_ <= 1
 R527: x0_6_ + x12_6_ <= 1
 R528: x0_7_ + x12_7_ <= 1
 R529: x0_8_ + x12_8_ <= 1
 R530: x0_9_ + x12_9_ <= 1
 R531: x3_0_ + x12_0_ <= 1
 R532: x3_1_ + x12_1_ <= 1
 R533: x3_2_ + x12_2_ <= 1
 R534: x3_3_ + x12_3_ <= 1
 R535: x3_4_ + x12_4_ <= 1
 R536: x3_5_ + x12_5_ <= 1
 R537: x3_6_ + x12_6_ <= 1
 R538: x3_7_ + x12_7_ <= 1
 R539: x3_8_ + x12_8_ <= 1
 R540: x3_9_ + x12_9_ <= 1
 R541: x4_0_ + x12_0_ <= 1
 R542: x4_1_ + x12_1_ <= 1
 R543: x4_2_ + x12_2_ <= 1
 R544: x4_3_ + x12_3_ <= 1
 R545: x4_4_ + x12_4_ <= 1
 R546: x4_5_ + x12_5_ <= 1
 R547: x4_6_ + x12_6_ <= 1
 R548: x4_7_ + x12_7_ <= 1
 R549: x4_8_ + x12_8_ <= 1
 R550: x4_9_ + x12_9_ <= 1
 R551: x6_0_ + x12_0_ <= 1
 R552: x6_1_ + x12_1_ <= 1
 R553: x6_2_ + x12_2_ <= 1
 R554: x6_3_ + x12_3_ <= 1
 R555: x6_4_ + x12_4_ <= 1
 R556: x6_5_ + x12_5_ <= 1
 R557: x6_6_ + x12_6_ <= 1
 R558: x6_7_ + x12_7_ <= 1
 R559: x6_8_ + x12_8_ <= 1
 R560: x6_9_ + x12_9_ <= 1
 R561: x7_0_ + x12_0_ <= 1
 R562: x7_1_ + x12_1_ <= 1
 R563: x7_2_ + x12_2_ <= 1
 R564: x7_3_ + x12_3_ <= 1
 R565: x7_4_ + x12_4_ <= 1
 R566: x7_5_ + x12_5_ <= 1
 R567: x7_6_ + x12_6_ <= 1
 R568: x7_7_ + x12_7_ <= 1
 R569: x7_8_ + x12_8_ <= 1
 R570: x7_9_ + x12_9_ <= 1
 R571: x10_0_ + x12_0_ <= 1
 R572: x10_1_ + x12_1_ <= 1
 R573: x10_2_ + x12_2_ <= 1
 R574: x10_3_ + x12_3_ <= 1
 R575: x10_4_ + x12_4_ <= 1
 R576: x10_5_ + x12_5_ <= 1
 R577: x10_6_ + x12_6_ <= 1
 R578: x10_7_ + x12_7_ <= 1
 R579: x10_8_ + x12_8_ <= 1
 R580: x10_9_ + x12_9_ <= 1
 R581: x12_0_ + x13_0_ <= 1
 R582: x12_1_ + x13_1_ <= 1
 R583: x12_2_ + x13_2_ <= 1
 R584: x12_3_ + x13_3_ <= 1
 R585: x12_4_ + x13_4_ <= 1
 R586: x12_5_ + x13_5_ <= 1
 R587: x12_6_ + x13_6_ <= 1
 R588: x12_7_ + x13_7_ <= 1
 R589: x12_8_ + x13_8_ <= 1
 R590: x12_9_ + x13_9_ <= 1
 R591: x0_0_ + x13_0_ <= 1
 R592: x0_1_ + x13_1_ <= 1
 R593: x0_2_ + x13_2_ <= 1
 R594: x0_3_ + x13_3_ <= 1
 R595: x0_4_ + x13_4_ <= 1
 R596: x0_5_ + x13_5_ <= 1
 R597: x0_6_ + x13_6_ <= 1
 R598: x0_7_ + x13_7_ <= 1
 R599: x0_8_ + x13_8_ <= 1
 R600: x0_9_ + x13_9_ <= 1
 R601: x3_0_ + x13_0_ <= 1
 R602: x3_1_ + x13_1_ <= 1
 R603: x3_2_ + x13_2_ <= 1
 R604: x3_3_ + x13_3_ <= 1
 R605: x3_4_ + x13_4_ <= 1
 R606: x3_5_ + x13_5_ <= 1
 R607: x3_6_ + x13_6_ <= 1
 R608: x3_7_ + x13_7_ <= 1
 R609: x3_8_ + x13_8_ <= 1
 R610: x3_9_ + x13_9_ <= 1
 R611: x4_0_ + x13_0_ <= 1
 R612: x4_1_ + x13_1_ <= 1
 R613: x4_2_ + x13_2_ <= 1
 R614: x4_3_ + x13_3_ <= 1
 R615: x4_4_ + x13_4_ <= 1
 R616: x4_5_ + x13_5_ <= 1
 R617: x4_6_ + x13_6_ <= 1
 R618: x4_7_ + x13_7_ <= 1
 R619: x4_8_ + x13_8_ <= 1
 R620: x4_9_ + x13_9_ <= 1
 R621: x6_0_ + x13_0_ <= 1
 R622: x6_1_ + x13_1_ <= 1
 R623: x6_2_ + x13_2_ <= 1
 R624: x6_3_ + x13_3_ <= 1
 R625: x6_4_ + x13_4_ <= 1
 R626: x6_5_ + x13_5_ <= 1
 R627: x6_6_ + x13_6_ <= 1
 R628: x6_7_ + x13_7_ <= 1
 R629: x6_8_ + x13_8_ <= 1
 R630: x6_9_ + x13_9_ <= 1
 R631: x7_0_ + x13_0_ <= 1
 R632: x7_1_ + x13_1_ <= 1
 R633: x7_2_ + x13_2_ <= 1
 R634: x7_3_ + x13_3_ <= 1
 R635: x7_4_ + x13_4_ <= 1
 R636: x7_5_ + x13_5_ <= 1
 R637: x7_6_ + x13_6_ <= 1
 R638: x7_7_ + x13_7_ <= 1
 R639: x7_8_ + x13_8_ <= 1
 R640: x7_9_ + x13_9_ <= 1
 R641: x10_0_ + x13_0_ <= 1
 R642: x10_1_ + x13_1_ <= 1
 R643: x10_2_ + x13_2_ <= 1
 R644: x10_3_ + x13_3_ <= 1
 R645: x10_4_ + x13_4_ <= 1
 R646: x10_5_ + x13_5_ <= 1
 R647: x10_6_ + x13_6_ <= 1
 R648: x10_7_ + x13_7_ <= 1
 R649: x10_8_ + x13_8_ <= 1
 R650: x10_9_ + x13_9_ <= 1
 R651: x12_0_ + x13_0_ <= 1
 R652: x12_1_ + x13_1_ <= 1
 R653: x12_2_ + x13_2_ <= 1
 R654: x12_3_ + x13_3_ <= 1
 R655: x12_4_ + x13_4_ <= 1
 R656: x12_5_ + x13_5_ <= 1
 R657: x12_6_ + x13_6_ <= 1
 R658: x12_7_ + x13_7_ <= 1
 R659: x12_8_ + x13_8_ <= 1
 R660: x12_9_ + x13_9_ <= 1
 R661: x0_5_ + x14_5_ <= 1
 R662: x0_6_ + x14_6_ <= 1
 R663: x1_5_ + x14_5_ <= 1
 R664: x1_6_ + x14_6_ <= 1
 R665: x3_5_ + x14_5_ <= 1
 R666: x3_6_ + x14_6_ <= 1
 R667: x4_5_ + x14_5_ <= 1
 R668: x4_6_ + x14_6_ <= 1
 R669: x5_5_ + x14_5_ <= 1
 R670: x5_6_ + x14_6_ <= 1
 R671: x6_5_ + x14_5_ <= 1
 R672: x6_6_ + x14_6_ <= 1
 R673: x7_5_ + x14_5_ <= 1
 R674: x7_6_ + x14_6_ <= 1
 R675: x9_5_ + x14_5_ <= 1
 R676: x9_6_ + x14_6_ <= 1
 R677: x10_5_ + x14_5_ <= 1
 R678: x10_6_ + x14_6_ <= 1
 R679: x12_5_ + x14_5_ <= 1
 R680: x12_6_ + x14_6_ <= 1
 R681: x13_5_ + x14_5_ <= 1
 R682: x13_6_ + x14_6_ <= 1
 R683: <= 1
 R684: 27 x0_0_ + 27 x0_1_ + 27 x0_2_ + 27 x0_3_ + 27 x0_4_ + 6 x0_5_
   + 6 x0_6_ + 27 x0_7_ + 27 x0_8_ + 27 x0_9_ + 360 x1_5_ + 360 x1_6_
   + 68 x2_5_ + 68 x2_6_ + 45 x3_0_ + 45 x3_1_ + 45 x3_2_ + 45 x3_3_
   + 45 x3_4_ + 10 x3_5_ + 10 x3_6_ + 45 x3_7_ + 45 x3_8_ + 45 x3_9_
   + 27 x4_0_ + 27 x4_1_ + 27 x4_2_ + 27 x4_3_ + 27 x4_4_ + 6 x4_5_
   + 6 x4_6_ + 27 x4_7_ + 27 x4_8_ + 27 x4_9_ + 216 x5_5_ + 216 x5_6_
   + 45 x6_0_ + 45 x6_1_ + 45 x6_2_ + 45 x6_3_ + 45 x6_4_ + 10 x6_5_
   + 10 x6_6_ + 45 x6_7_ + 45 x6_8_ + 45 x6_9_ + 45 x7_0_ + 45 x7_1_
   + 45 x7_2_ + 45 x7_3_ + 45 x7_4_ + 10 x7_5_ + 10 x7_6_ + 45 x7_7_
   + 45 x7_8_ + 45 x7_9_ + 18 x8_0_ + 18 x8_1_ + 18 x8_2_ + 18 x8_3_
   + 18 x8_4_ + 4 x8_5_ + 4 x8_6_ + 18 x8_7_ + 18 x8_8_ + 18 x8_9_
   + 360 x9_5_ + 360 x9_6_ + 18 x10_0_ + 18 x10_1_ + 18 x10_2_ + 18 x10_3_
   + 18 x10_4_ + 4 x10_5_ + 4 x10_6_ + 18 x10_7_ + 18 x10_8_ + 18 x10_9_
   + 216 x11_5_ + 216 x11_6_ + 54 x12_0_ + 54 x12_1_ + 54 x12_2_
   + 54 x12_3_ + 54 x12_4_ + 12 x12_5_ + 12 x12_6_ + 54 x12_7_ + 54 x12_8_
   + 54 x12_9_ + 45 x13_0_ + 45 x13_1_ + 45 x13_2_ + 45 x13_3_ + 45 x13_4_
   + 10 x13_5_ + 10 x13_6_ + 45 x13_7_ + 45 x13_8_ + 45 x13_9_ + 288 x14_5_
   + 288 x14_6_ >= 1404
 R685: x0_0_ + x1_6_ + x2_n_ + x3_9_ + x4_3_ + x5_6_ + x6_4_ + x7_8_
   + x8_7_ + x9_n_ + x10_7_ + x11_5_ + x12_1_ + x13_2_ + x14_5_ <= 14
Bounds
Binaries
 x0_0_ x0_1_ x0_2_ x0_3_ x0_4_ x0_5_ x0_6_ x0_7_ x0_8_ x0_9_ x0_n_ x1_5_
 x1_6_ x1_n_ x2_5_ x2_6_ x2_n_ x3_0_ x3_1_ x3_2_ x3_3_ x3_4_ x3_5_ x3_6_
 x3_7_ x3_8_ x3_9_ x3_n_ x4_0_ x4_1_ x4_2_ x4_3_ x4_4_ x4_5_ x4_6_ x4_7_
 x4_8_ x4_9_ x4_n_ x5_5_ x5_6_ x5_n_ x6_0_ x6_1_ x6_2_ x6_3_ x6_4_ x6_5_
 x6_6_ x6_7_ x6_8_ x6_9_ x6_n_ x7_0_ x7_1_ x7_2_ x7_3_ x7_4_ x7_5_ x7_6_
 x7_7_ x7_8_ x7_9_ x7_n_ x8_0_ x8_1_ x8_2_ x8_3_ x8_4_ x8_5_ x8_6_ x8_7_
 x8_8_ x8_9_ x8_n_ x9_5_ x9_6_ x9_n_ x10_0_ x10_1_ x10_2_ x10_3_ x10_4_
 x10_5_ x10_6_ x10_7_ x10_8_ x10_9_ x10_n_ x11_5_ x11_6_ x11_n_ x12_0_
 x12_1_ x12_2_ x12_3_ x12_4_ x12_5_ x12_6_ x12_7_ x12_8_ x12_9_ x12_n_
 x13_0_ x13_1_ x13_2_ x13_3_ x13_4_ x13_5_ x13_6_ x13_7_ x13_8_ x13_9_
 x13_n_ x14_5_ x14_6_ x14_n_
End
